32      4       
11      16      13      15      
0       0       0       0       0       1       2       
10      0       0       3       3       1       3       
2       1       1       0       0       1       4       
8       0       5       2       0       2       8       5       
1       2       6       0       0       1       6       
10      0       0       1       1       1       7       
5       0       7       9       0       1       9       
1       3       0       0       1       1       9       
9       0       0       1       3       2       15      10      
8       2       1       0       0       1       11      
4       9       0       0       10      2       25      12      
3       0       6       0       1       1       13      
3       0       7       1       0       1       14      
5       10      0       0       7       1       16      
1       0       5       0       1       1       16      
9       1       0       3       0       1       17      
3       0       0       4       7       2       23      18      
1       4       3       0       0       2       20      19      
9       2       0       2       0       1       21      
6       2       0       4       0       1       21      
9       2       0       0       12      1       22      
7       1       1       0       0       1       24      
5       0       1       0       5       1       24      
5       0       0       13      5       2       27      26      
8       9       4       0       0       2       27      26      
9       0       0       1       6       1       28      
3       1       0       0       5       1       28      
6       0       8       2       0       1       29      
4       1       0       5       0       1       30      
7       0       3       0       1       1       31      
5       0       14      8       0       1       32      
0       0       0       0       0       0       
